100
128
55
24
49
9
6
7
2
4
64
36
33
60
30
59
7
29
38
12
54
35
31
41
31
23
21
38
51
48
18
27
26
47
15
62
35
11
51
24
53
62
64
59
9
25
60
27
30
34
64
64
52
24
51
11
29
2
32
21
43
24
47
54
24
38
27
1
38
52
47
29
42
1
28
54
53
33
22
38
64
52
27
24
56
4
36
32
26
25
6
33
44
63
32
51
32
14
31
1
32
64